n = 5;
pattern_length = 5;
num_patterns = 120;
num_classes = 12;
pattern = [|
1, 2, 3, 4, 5
| 1, 2, 3, 5, 4
| 1, 2, 4, 3, 5
| 1, 2, 4, 5, 3
| 1, 2, 5, 3, 4
| 1, 2, 5, 4, 3
| 1, 3, 2, 4, 5
| 1, 3, 2, 5, 4
| 1, 3, 4, 2, 5
| 1, 3, 4, 5, 2
| 1, 3, 5, 2, 4
| 1, 3, 5, 4, 2
| 1, 4, 2, 3, 5
| 1, 4, 2, 5, 3
| 1, 4, 3, 2, 5
| 1, 4, 3, 5, 2
| 1, 4, 5, 2, 3
| 1, 4, 5, 3, 2
| 1, 5, 2, 3, 4
| 1, 5, 2, 4, 3
| 1, 5, 3, 2, 4
| 1, 5, 3, 4, 2
| 1, 5, 4, 2, 3
| 1, 5, 4, 3, 2
| 2, 1, 3, 4, 5
| 2, 1, 3, 5, 4
| 2, 1, 4, 3, 5
| 2, 1, 4, 5, 3
| 2, 1, 5, 3, 4
| 2, 1, 5, 4, 3
| 2, 3, 1, 4, 5
| 2, 3, 1, 5, 4
| 2, 3, 4, 1, 5
| 2, 3, 4, 5, 1
| 2, 3, 5, 1, 4
| 2, 3, 5, 4, 1
| 2, 4, 1, 3, 5
| 2, 4, 1, 5, 3
| 2, 4, 3, 1, 5
| 2, 4, 3, 5, 1
| 2, 4, 5, 1, 3
| 2, 4, 5, 3, 1
| 2, 5, 1, 3, 4
| 2, 5, 1, 4, 3
| 2, 5, 3, 1, 4
| 2, 5, 3, 4, 1
| 2, 5, 4, 1, 3
| 2, 5, 4, 3, 1
| 3, 1, 2, 4, 5
| 3, 1, 2, 5, 4
| 3, 1, 4, 2, 5
| 3, 1, 4, 5, 2
| 3, 1, 5, 2, 4
| 3, 1, 5, 4, 2
| 3, 2, 1, 4, 5
| 3, 2, 1, 5, 4
| 3, 2, 4, 1, 5
| 3, 2, 4, 5, 1
| 3, 2, 5, 1, 4
| 3, 2, 5, 4, 1
| 3, 4, 1, 2, 5
| 3, 4, 1, 5, 2
| 3, 4, 2, 1, 5
| 3, 4, 2, 5, 1
| 3, 4, 5, 1, 2
| 3, 4, 5, 2, 1
| 3, 5, 1, 2, 4
| 3, 5, 1, 4, 2
| 3, 5, 2, 1, 4
| 3, 5, 2, 4, 1
| 3, 5, 4, 1, 2
| 3, 5, 4, 2, 1
| 4, 1, 2, 3, 5
| 4, 1, 2, 5, 3
| 4, 1, 3, 2, 5
| 4, 1, 3, 5, 2
| 4, 1, 5, 2, 3
| 4, 1, 5, 3, 2
| 4, 2, 1, 3, 5
| 4, 2, 1, 5, 3
| 4, 2, 3, 1, 5
| 4, 2, 3, 5, 1
| 4, 2, 5, 1, 3
| 4, 2, 5, 3, 1
| 4, 3, 1, 2, 5
| 4, 3, 1, 5, 2
| 4, 3, 2, 1, 5
| 4, 3, 2, 5, 1
| 4, 3, 5, 1, 2
| 4, 3, 5, 2, 1
| 4, 5, 1, 2, 3
| 4, 5, 1, 3, 2
| 4, 5, 2, 1, 3
| 4, 5, 2, 3, 1
| 4, 5, 3, 1, 2
| 4, 5, 3, 2, 1
| 5, 1, 2, 3, 4
| 5, 1, 2, 4, 3
| 5, 1, 3, 2, 4
| 5, 1, 3, 4, 2
| 5, 1, 4, 2, 3
| 5, 1, 4, 3, 2
| 5, 2, 1, 3, 4
| 5, 2, 1, 4, 3
| 5, 2, 3, 1, 4
| 5, 2, 3, 4, 1
| 5, 2, 4, 1, 3
| 5, 2, 4, 3, 1
| 5, 3, 1, 2, 4
| 5, 3, 1, 4, 2
| 5, 3, 2, 1, 4
| 5, 3, 2, 4, 1
| 5, 3, 4, 1, 2
| 5, 3, 4, 2, 1
| 5, 4, 1, 2, 3
| 5, 4, 1, 3, 2
| 5, 4, 2, 1, 3
| 5, 4, 2, 3, 1
| 5, 4, 3, 1, 2
| 5, 4, 3, 2, 1
|];
class = [{1, 34, 65, 97, 87, 24, 56, 91, 120, 30}, {96, 2, 36, 71, 73, 111, 18, 115, 55, 28}, {98, 3, 67, 40, 80, 114, 22, 89, 29, 63}, {4, 72, 42, 12, 109, 79, 49, 117, 26, 95}, {5, 69, 104, 74, 46, 16, 113, 90, 27, 61}, {66, 6, 103, 10, 48, 50, 85, 119, 25, 93}, {32, 99, 7, 41, 81, 54, 23, 118, 58, 92}, {8, 105, 75, 47, 17, 52, 116, 60, 94, 31}, {64, 100, 39, 9, 43, 108, 83, 20, 53, 86}, {37, 70, 11, 76, 45, 14, 107, 110, 51, 84}, {35, 68, 101, 38, 13, 78, 112, 82, 21, 57}, {33, 102, 106, 44, 77, 15, 19, 88, 59, 62}];
